1 122
2 61
3 40
4 44
5 59
6 46
7 41
8 39
9 37
10 34
11 30
12 32
13 32
14 26
15 24
16 26
17 25
18 18
19 19
20 17
21 22
22 15
23 14
24 14
25 19
26 19
27 16
28 8
29 7
30 7
31 13
32 8
33 9
34 9
35 10
36 9
37 9
38 11
39 8
40 8
41 8
42 14
43 8
44 14
45 8
46 14
47 10
48 13
49 10
50 12
51 13
52 13
53 12
54 9
55 13
56 13
57 7
58 6
59 6
60 10
61 10
62 12
63 12
64 12
65 11
66 11
67 6
68 6
69 8
70 9
71 7
72 4
73 5
74 5
75 10
76 11
77 6
78 5
79 5
80 9
81 6
82 11
83 11
84 11
85 6
86 11
87 10
88 4
89 4
90 10
91 11
92 11
93 10
94 5
95 8
96 10
97 5
98 5
99 11
100 5
101 7
102 10
103 7
104 4
105 10
106 8
107 8
108 9
109 10
110 11
111 10
112 5
113 11
114 10
115 4
116 10
117 12
118 8
119 10
120 11
121 7
122 5
123 10
124 10
125 5
126 10
127 10
128 4
129 10
130 10
131 5
132 10
133 5
134 10
135 4
136 7
137 7
138 10
139 10
140 8
141 10
142 5
143 20
144 10
145 5
146 10
147 10
148 13
149 10
150 10
151 10
152 12
153 9
154 6
155 12
156 6
157 9
158 11
159 6
160 10
161 8
162 8
163 11
164 10
165 7
166 6
167 10
168 5
169 5
170 7
171 8
172 10
173 16
174 5
175 5
176 6
177 16
178 11
179 11
180 10
181 7
182 5
183 7
184 11
185 10
186 15
187 11
188 11
189 9
190 14
191 10
192 11
193 9
194 5
195 5
196 11
197 5
198 11
199 5
200 11
201 8
202 14
203 10
204 11
205 6
206 10
207 6
208 20
209 6
210 8
211 11
212 6
213 5
214 12
215 7
216 10
217 6
218 11
219 19
220 10
221 12
222 8
223 10
224 15
225 9
226 7
227 6
228 11
229 7
230 6
231 20
232 6
233 13
234 9
235 13
236 6
237 13
238 13
239 14
240 7
241 11
242 11
243 13
244 8
245 10
246 7
247 13
248 13
249 13
